NAME : 10_3_3_2_(02).dat
COMMENT : Henke, Speranza, Wäscher, 2015
TYPE : MCVRP
DIMENSION : 11
EDGE_WEIGHT_TYPE : DISTANCE_MATRIX
CAPACITY : 1000
VEHICLES : 2
PRODUCT TYPES : 3
COMPARTMENTS : 3
NODE_COORD_SECTION
1 50 50
2 33.7 31.25
3 72.77 55.95
4 16.3 57.63
5 2.05 31.51
6 99.59 89.88
7 63.09 36.64
8 56.06 10.07
9 0.85 99.04
10 19 77.87
11 21.67 56.76
DEMAND_SECTION
1 0 0 0
2 138 0 3
3 0 105 68
4 155 58 0
5 0 62 60
6 27 74 0
7 0 25 68
8 74 27 0
9 135 97 0
10 34 0 54
11 184 0 46
DEPOT_SECTION
1
EOF